============================[ Problem Statistics ]=============================|                                                                             ||  Number of variables:          4242                                         ||  Number of clauses:            9707                                         ||  Parse time:                   0.11 s                                       ||                                                                             |============================[ Search Statistics ]==============================| Conflicts |          ORIGINAL         |          LEARNT          | Progress ||           |    Vars  Clauses Literals |    Limit  Clauses Lit/Cl |          |==============================================================================================================================================================restarts              : 1conflicts             : 69             (397 /sec)decisions             : 155            (0.00 % random) (891 /sec)propagations          : 8175           (46983 /sec)conflict literals     : 3359           (95.94 % deleted)CPU time              : 0.174 sSATISFIABLE